(set-info :source |printed by MathSAT|)
(declare-fun T_1 () (Array Int Int))
(declare-fun .y.20 () (Array Int Int))
(declare-fun .y.15 () (Array Int Int))
(declare-fun .y.16 () (Array Int Int))
(declare-fun U_1 () Int)
(declare-fun .y.23 () Int)
(declare-fun .y.17 () (Array Int Int))
(declare-fun W_0 () Int)
(declare-fun .y.25 () Int)
(declare-fun O_1 () Int)
(declare-fun .y.26 () Int)
(declare-fun H_1 () Int)
(declare-fun .y.27 () Int)
(declare-fun I_1 () (Array Int Int))
(declare-fun .y.28 () (Array Int Int))
(declare-fun B_2 () Int)
(declare-fun .y.29 () Int)
(declare-fun C_2 () (Array Int Int))
(declare-fun .y.30 () (Array Int Int))
(declare-fun A_2 () (Array Int Int))
(declare-fun .y.31 () (Array Int Int))
(declare-fun .loc.18 () Bool)
(declare-fun .loc.32 () Bool)
(declare-fun .loc.19 () Bool)
(declare-fun .loc.33 () Bool)
(declare-fun Y_0 () Int)
(declare-fun J_1 () Int)
(define-fun .def_8 () (Array Int Int) (! T_1 :next |.y.20|))
(define-fun .def_10 () (Array Int Int) (! .y.15 :next |.y.21|))
(define-fun .def_12 () (Array Int Int) (! .y.16 :next |.y.22|))
(define-fun .def_14 () Int (! U_1 :next |.y.23|))
(define-fun .def_16 () (Array Int Int) (! .y.17 :next |.y.24|))
(define-fun .def_18 () Int (! W_0 :next |.y.25|))
(define-fun .def_20 () Int (! O_1 :next |.y.26|))
(define-fun .def_22 () Int (! H_1 :next |.y.27|))
(define-fun .def_24 () (Array Int Int) (! I_1 :next |.y.28|))
(define-fun .def_26 () Int (! B_2 :next |.y.29|))
(define-fun .def_28 () (Array Int Int) (! C_2 :next |.y.30|))
(define-fun .def_30 () (Array Int Int) (! A_2 :next |.y.31|))
(define-fun .def_32 () Bool (! .loc.18 :next |.loc.32|))
(define-fun .def_34 () Bool (! .loc.19 :next |.loc.33|))
(define-fun .def_47 () Int (! Y_0 :next |.xtv.1|))
(define-fun .def_68 () Int (! J_1 :next |.xtv.2|))
(define-fun .def_154 () Bool (not .def_34))
(define-fun .def_107 () Bool (not .def_32))
(define-fun .def_156 () Bool (! (and .def_107 .def_154) :init true))
(define-fun .def_150 () Bool (not .loc.32))
(define-fun .def_144 () (Array Int Int) (store .def_24 .def_68 0))
(define-fun .def_145 () Int (select .def_144 .def_47))
(define-fun .def_146 () Bool (= .def_145 0))
(define-fun .def_131 () Int (select .def_8 .def_14))
(define-fun .def_141 () Bool (<= .def_131 (- 1)))
(define-fun .def_142 () Bool (not .def_141))
(define-fun .def_91 () Bool (<= .def_68 0))
(define-fun .def_92 () Bool (not .def_91))
(define-fun .def_37 () Bool (<= .def_18 0))
(define-fun .def_139 () Bool (or .def_37 .def_92))
(define-fun .def_56 () (Array Int Int) (store .def_30 .def_20 .def_22))
(define-fun .def_61 () Int (select .def_56 .def_20))
(define-fun .def_136 () Bool (<= .def_61 .def_131))
(define-fun .def_137 () Bool (not .def_136))
(define-fun .def_73 () Int (* (- 1) .def_47))
(define-fun .def_132 () Int (+ .def_73 .def_131))
(define-fun .def_133 () Int (+ .def_18 .def_132))
(define-fun .def_134 () Bool (= .def_133 0))
(define-fun .def_80 () Int (* (- 1) .def_68))
(define-fun .def_81 () Int (+ .def_22 .def_80))
(define-fun .def_124 () Int (+ .def_18 .def_81))
(define-fun .def_125 () Bool (= .def_124 0))
(define-fun .def_39 () Bool (<= .def_26 0))
(define-fun .def_40 () Bool (not .def_39))
(define-fun .def_126 () Bool (and .def_40 .def_125))
(define-fun .def_38 () Bool (not .def_37))
(define-fun .def_127 () Bool (and .def_38 .def_126))
(define-fun .def_42 () Int (+ .def_22 .def_26))
(define-fun .def_87 () Int (select .def_28 .def_42))
(define-fun .def_88 () Bool (= .def_87 0))
(define-fun .def_128 () Bool (and .def_88 .def_127))
(define-fun .def_43 () Bool (<= .def_42 0))
(define-fun .def_44 () Bool (not .def_43))
(define-fun .def_45 () Bool (or .def_39 .def_44))
(define-fun .def_129 () Bool (and .def_45 .def_128))
(define-fun .def_48 () Bool (<= .def_47 0))
(define-fun .def_49 () Bool (not .def_48))
(define-fun .def_50 () Bool (or .def_37 .def_49))
(define-fun .def_130 () Bool (and .def_50 .def_129))
(define-fun .def_135 () Bool (and .def_130 .def_134))
(define-fun .def_138 () Bool (and .def_135 .def_137))
(define-fun .def_140 () Bool (and .def_138 .def_139))
(define-fun .def_143 () Bool (and .def_140 .def_142))
(define-fun .def_147 () Bool (and .def_143 .def_146))
(define-fun .def_148 () Bool (and .def_32 .def_147))
(define-fun .def_149 () Bool (and .loc.33 .def_148))
(define-fun .def_151 () Bool (and .def_149 .def_150))
(define-fun .def_120 () Bool (= .def_8 .y.30))
(define-fun .def_117 () (Array Int Int) (store .def_10 .y.23 .def_68))
(define-fun .def_118 () Bool (= .y.20 .def_117))
(define-fun .def_114 () (Array Int Int) (store .def_12 .y.26 0))
(define-fun .def_115 () Bool (= .y.31 .def_114))
(define-fun .def_112 () Bool (= .def_16 .y.28))
(define-fun .def_110 () Bool (= .y.27 0))
(define-fun .def_54 () Bool (not .loc.33))
(define-fun .def_108 () Bool (and .loc.32 .def_54))
(define-fun .def_109 () Bool (and .def_107 .def_108))
(define-fun .def_111 () Bool (and .def_109 .def_110))
(define-fun .def_113 () Bool (and .def_111 .def_112))
(define-fun .def_116 () Bool (and .def_113 .def_115))
(define-fun .def_119 () Bool (and .def_116 .def_118))
(define-fun .def_121 () Bool (and .def_119 .def_120))
(define-fun .def_152 () Bool (or .def_121 .def_151))
(define-fun .def_105 () Bool (= .def_28 .y.30))
(define-fun .def_103 () Bool (= .def_26 .y.29))
(define-fun .def_101 () Bool (= .def_20 .y.26))
(define-fun .def_99 () Bool (= .def_18 .y.25))
(define-fun .def_97 () Bool (= .def_14 .y.23))
(define-fun .def_95 () Bool (= .def_8 .y.20))
(define-fun .def_93 () Bool (or .def_39 .def_92))
(define-fun .def_89 () Bool (not .def_88))
(define-fun .def_83 () Int (+ .def_26 .def_80))
(define-fun .def_84 () Int (+ .def_22 .def_83))
(define-fun .def_85 () Bool (= .def_84 0))
(define-fun .def_76 () Int (+ .def_22 .def_73))
(define-fun .def_77 () Int (+ .def_18 .def_76))
(define-fun .def_78 () Bool (= .def_77 0))
(define-fun .def_69 () Int (select .def_28 .def_68))
(define-fun .def_70 () (Array Int Int) (store .def_24 .def_47 .def_69))
(define-fun .def_71 () Bool (= .y.28 .def_70))
(define-fun .def_64 () Int (* (- 1) .def_61))
(define-fun .def_65 () Int (+ .y.27 .def_64))
(define-fun .def_66 () Bool (= .def_65 1))
(define-fun .def_57 () Bool (= .y.31 .def_56))
(define-fun .def_41 () Bool (and .def_38 .def_40))
(define-fun .def_46 () Bool (and .def_41 .def_45))
(define-fun .def_51 () Bool (and .def_46 .def_50))
(define-fun .def_52 () Bool (and .def_32 .def_51))
(define-fun .def_53 () Bool (and .loc.32 .def_52))
(define-fun .def_55 () Bool (and .def_53 .def_54))
(define-fun .def_58 () Bool (and .def_55 .def_57))
(define-fun .def_67 () Bool (and .def_58 .def_66))
(define-fun .def_72 () Bool (and .def_67 .def_71))
(define-fun .def_79 () Bool (and .def_72 .def_78))
(define-fun .def_86 () Bool (and .def_79 .def_85))
(define-fun .def_90 () Bool (and .def_86 .def_89))
(define-fun .def_94 () Bool (and .def_90 .def_93))
(define-fun .def_96 () Bool (and .def_94 .def_95))
(define-fun .def_98 () Bool (and .def_96 .def_97))
(define-fun .def_100 () Bool (and .def_98 .def_99))
(define-fun .def_102 () Bool (and .def_100 .def_101))
(define-fun .def_104 () Bool (and .def_102 .def_103))
(define-fun .def_106 () Bool (and .def_104 .def_105))
(define-fun .def_153 () Bool (or .def_106 .def_152))
(define-fun .def_155 () Bool (! (and .def_153 .def_154) :trans true))
(define-fun .def_157 () Bool (and .def_34 .def_107))
(define-fun .def_158 () Bool (! (not .def_157) :invar-property 0))
(assert true)
